Problem:    
Rows:       256
Columns:    89 (72 integer, 72 binary)
Non-zeros:  800
Status:     INTEGER OPTIMAL
Objective:  value = 2.05974 (MINimum)

   No.   Row name        Activity     Lower bound   Upper bound
------ ------------    ------------- ------------- -------------
     1 r.5                   1002.06             0               
     2 r.6                  -999.475      -999.711               
     3 r.7                   2.05974             0               
     4 r.8                  0.525273      -999.251               
     5 r.9                   1002.06             0               
     6 r.10                 -998.455      -999.677               
     7 r.11                  2.05974             0               
     8 r.12                  1.57926      -999.147               
     9 r.13                  1002.06             0               
    10 r.14                 -998.778      -999.544               
    11 r.15                  2.05974             0               
    12 r.16                  1.57926      -998.795               
    13 r.17                  1002.06             0               
    14 r.18                 -999.234       -999.76               
    15 r.19                  2.05974             0               
    16 r.20                 0.765631       -999.34               
    17 r.21                  1002.06             0               
    18 r.22                 -999.763      -999.787               
    19 r.23                  2.05974             0               
    20 r.24                 0.525273      -999.402               
    21 r.25                  1002.06             0               
    22 r.26                 -999.976      -999.976               
    23 r.27                  2.05974             0               
    24 r.28                   0.0241      -999.941               
    25 r.29                  2.05974             0               
    26 r.30                  2.05974      -999.396               
    27 r.31                  1002.06             0               
    28 r.32                  -997.94      -998.466               
    29 r.33                  1002.06             0               
    30 r.34                  -997.94       -999.52               
    31 r.35                  2.05974             0               
    32 r.36                  2.05974      -998.685               
    33 r.37                        1             1             = 
    34 r.38                        1             1             = 
    35 r.39                        1             1             = 
    36 r.40                        1             1             = 
    37 r.41                        1             1             = 
    38 r.42                        1             1             = 
    39 r.43                        1             1             = 
    40 r.44                        1             1             = 
    41 r.45                        2             2               
    42 r.46                       -2         -1001               
    43 r.47                  -998.98      -999.677               
    44 r.48                     1000             2               
    45 r.49                    -1000         -1001               
    46 r.50                  2001.05      -999.147               
    47 r.51                        2             2               
    48 r.52                       -2         -1001               
    49 r.53                 -999.303      -999.544               
    50 r.54                     1000             2               
    51 r.55                    -1000         -1001               
    52 r.56                  2001.05      -998.795               
    53 r.57                        2             2               
    54 r.58                       -2         -1001               
    55 r.59                  -999.76       -999.76               
    56 r.60                     1000             2               
    57 r.61                    -1000         -1001               
    58 r.62                  2000.24       -999.34               
    59 r.63                        2             2               
    60 r.64                       -2         -1001               
    61 r.65                -0.288506      -999.787               
    62 r.66                     1000             2               
    63 r.67                    -1000         -1001               
    64 r.68                     2000      -999.402               
    65 r.69                 -999.499      -999.711               
    66 r.70                 0.501173      -999.251               
    67 r.71                 -999.499      -999.711               
    68 r.72                 0.501173      -999.251               
    69 r.73                  1.53447      -999.396               
    70 r.74                 -998.466      -998.466               
    71 r.75                  1.53447      -999.396               
    72 r.76                 -998.466      -998.466               
    73 r.77                        2             2               
    74 r.78                       -2         -1001               
    75 r.79                 -998.466       -999.52               
    76 r.80                     1000             2               
    77 r.81                    -1000         -1001               
    78 r.82                  2001.53      -998.685               
    79 r.83                        2             2               
    80 r.84                       -2         -1001               
    81 r.85                   998.98      0.288506               
    82 r.86                     1000             2               
    83 r.87                    -1000         -1001               
    84 r.88                  1998.95      0.749174               
    85 r.89                        2             2               
    86 r.90                       -2         -1001               
    87 r.91                -0.322978      -999.544               
    88 r.92                     1000             2               
    89 r.93                    -1000         -1001               
    90 r.94                     2000      -998.795               
    91 r.95                        2             2               
    92 r.96                       -2         -1001               
    93 r.97                  -0.7794       -999.76               
    94 r.98                     1000             2               
    95 r.99                    -1000         -1001               
    96 r.100                 1999.19       -999.34               
    97 r.101                       2             2               
    98 r.102                      -2         -1001               
    99 r.103                -1.30826      -999.787               
   100 r.104                    1000             2               
   101 r.105                   -1000         -1001               
   102 r.106                 1998.95      -999.402               
   103 r.107                -998.479      -999.677               
   104 r.108                 1.55516      -999.147               
   105 r.109                -998.479      -999.677               
   106 r.110                 1.55516      -999.147               
   107 r.111                    1001             2               
   108 r.112                   -1001         -1001               
   109 r.113                 2000.51      -999.396               
   110 r.114                    1001             2               
   111 r.115                   -1001         -1001               
   112 r.116                 2000.48      -998.466               
   113 r.117                -999.485       -999.52               
   114 r.118                0.514709      -998.685               
   115 r.119                 -999.52       -999.52               
   116 r.120                0.480478      -998.685               
   117 r.121                       2             2               
   118 r.122                      -2         -1001               
   119 r.123                 999.303      0.288506               
   120 r.124                    1000             2               
   121 r.125                   -1000         -1001               
   122 r.126                 1998.95      0.749174               
   123 r.127                       2             2               
   124 r.128                      -2         -1001               
   125 r.129                0.322978      0.322978               
   126 r.130                    1000             2               
   127 r.131                   -1000         -1001               
   128 r.132                    2000      0.852666               
   129 r.133                -999.544      -999.544               
   130 r.134                0.813631      -998.795               
   131 r.135                -999.544      -999.544               
   132 r.136                0.813631      -998.795               
   133 r.137                       2             2               
   134 r.138                      -2         -1001               
   135 r.139               -0.985286      -999.787               
   136 r.140                    1000             2               
   137 r.141                   -1000         -1001               
   138 r.142                 1998.95      -999.402               
   139 r.143                -998.802      -999.544               
   140 r.144                 1.55516      -998.795               
   141 r.145                -998.802      -999.544               
   142 r.146                 1.55516      -998.795               
   143 r.147                    1001             2               
   144 r.148                   -1001         -1001               
   145 r.149                 2000.84      -999.396               
   146 r.150                    1001             2               
   147 r.151                   -1001         -1001               
   148 r.152                 2000.48      -998.466               
   149 r.153                -999.162       -999.52               
   150 r.154                0.837687      -998.685               
   151 r.155                 -999.52       -999.52               
   152 r.156                0.480478      -998.685               
   153 r.157                       2             2               
   154 r.158                      -2         -1001               
   155 r.159                  999.76      0.288506               
   156 r.160                    1000             2               
   157 r.161                   -1000         -1001               
   158 r.162                 1999.76      0.749174               
   159 r.163                       2             2               
   160 r.164                      -2         -1001               
   161 r.165                  0.7794      0.322978               
   162 r.166                    1000             2               
   163 r.167                   -1000         -1001               
   164 r.168                 2000.81      0.852666               
   165 r.169                       2             2               
   166 r.170                      -2         -1001               
   167 r.171               -0.528864      -999.787               
   168 r.172                    1000             2               
   169 r.173                   -1000         -1001               
   170 r.174                 1999.76      -999.402               
   171 r.175                -999.258       -999.76               
   172 r.176                0.741531       -999.34               
   173 r.177                -999.258       -999.76               
   174 r.178                0.741531       -999.34               
   175 r.179                    1001             2               
   176 r.180                   -1001         -1001               
   177 r.181                 2001.29      -999.396               
   178 r.182                    1001             2               
   179 r.183                   -1001         -1001               
   180 r.184                 2001.29      -998.466               
   181 r.185                -998.706       -999.52               
   182 r.186                 1.29411      -998.685               
   183 r.187                -998.706       -999.52               
   184 r.188                 1.29411      -998.685               
   185 r.189                       2             2               
   186 r.190                      -2         -1001               
   187 r.191                0.288506      0.288506               
   188 r.192                    1000             2               
   189 r.193                   -1000         -1001               
   190 r.194                    2000      0.749174               
   191 r.195                       2             2               
   192 r.196                      -2         -1001               
   193 r.197                 1.30826      0.322978               
   194 r.198                    1000             2               
   195 r.199                   -1000         -1001               
   196 r.200                 2001.05      0.852666               
   197 r.201                       2             2               
   198 r.202                      -2         -1001               
   199 r.203                0.985286      0.456422               
   200 r.204                    1000             2               
   201 r.205                   -1000         -1001               
   202 r.206                 2001.05       1.20512               
   203 r.207                       2             2               
   204 r.208                      -2         -1001               
   205 r.209                0.528864      0.240358               
   206 r.210                    1000             2               
   207 r.211                   -1000         -1001               
   208 r.212                 2000.24      0.660346               
   209 r.213                -999.787      -999.787               
   210 r.214                0.501173      -999.402               
   211 r.215                -999.787      -999.787               
   212 r.216                0.501173      -999.402               
   213 r.217                 1.82297      -999.396               
   214 r.218                -998.177      -998.466               
   215 r.219                 1.53447      -999.396               
   216 r.220                -998.466      -998.466               
   217 r.221                -998.177       -999.52               
   218 r.222                 1.82297      -998.685               
   219 r.223                -998.466       -999.52               
   220 r.224                 1.53447      -998.685               
   221 r.225                    1001             2               
   222 r.226                   -1001         -1001               
   223 r.227                 1999.49      0.322978               
   224 r.228                    1001             2               
   225 r.229                   -1001         -1001               
   226 r.230                 1999.52      0.852666               
   227 r.231                    1001             2               
   228 r.232                   -1001         -1001               
   229 r.233                 1999.16      0.456422               
   230 r.234                    1001             2               
   231 r.235                   -1001         -1001               
   232 r.236                 1999.52       1.20512               
   233 r.237                    1001             2               
   234 r.238                   -1001         -1001               
   235 r.239                 1998.71      0.240358               
   236 r.240                    1001             2               
   237 r.241                   -1001         -1001               
   238 r.242                 1998.71      0.660346               
   239 r.243                    1001             2               
   240 r.244                   -1001         -1001               
   241 r.245                    2000       -999.52               
   242 r.246                    1001             2               
   243 r.247                   -1001         -1001               
   244 r.248                    2000      -998.685               
   245 r.249                       2             2               
   246 r.250                      -2         -1001               
   247 r.251                 998.466      0.288506               
   248 r.252                    1000             2               
   249 r.253                   -1000         -1001               
   250 r.254                 1998.47      0.749174               
   251 r.255                    1001             2               
   252 r.256                   -1001         -1001               
   253 r.257                    2000      0.604053               
   254 r.258                    1001             2               
   255 r.259                   -1001         -1001               
   256 r.260                    2000       1.53447               

   No. Column name       Activity     Lower bound   Upper bound
------ ------------    ------------- ------------- -------------
     1 tt                    2.05974             0               
     2 s_1_1        *              1             0             1 
     3 t_1_1                 1.53447             0               
     4 s_1_7        *              0             0             1 
     5 s_2_1        *              0             0             1 
     6 t_2_1                 1.53447             0               
     7 s_2_7        *              1             0             1 
     8 s_1_2        *              1             0             1 
     9 t_1_2                0.514709             0               
    10 s_1_8        *              1             0             1 
    11 s_2_2        *              0             0             1 
    12 t_2_2                0.480478             0               
    13 s_2_8        *              0             0             1 
    14 s_1_3        *              1             0             1 
    15 t_1_3                0.837687             0               
    16 s_2_3        *              0             0             1 
    17 t_2_3                0.480478             0               
    18 s_1_4        *              1             0             1 
    19 t_1_4                 1.29411             0               
    20 s_2_4        *              0             0             1 
    21 t_2_4                 1.29411             0               
    22 s_1_5        *              1             0             1 
    23 t_1_5                 1.82297             0               
    24 s_2_5        *              0             0             1 
    25 t_2_5                 1.53447             0               
    26 s_1_6        *              1             0             1 
    27 t_1_6                 2.03564             0               
    28 s_2_6        *              0             0             1 
    29 t_2_6                 2.03564             0               
    30 t_1_7                       0             0               
    31 t_2_7                       0             0               
    32 t_1_8                       0             0               
    33 t_2_8                       0             0               
    34 r_1_1_2      *              0             0             1 
    35 u_1_1_2      *              1             0             1 
    36 r_2_1_2      *              1             0             1 
    37 u_2_1_2      *              0             0             1 
    38 r_1_1_3      *              0             0             1 
    39 u_1_1_3      *              1             0             1 
    40 r_2_1_3      *              1             0             1 
    41 u_2_1_3      *              0             0             1 
    42 r_1_1_4      *              0             0             1 
    43 u_1_1_4      *              1             0             1 
    44 r_2_1_4      *              1             0             1 
    45 u_2_1_4      *              0             0             1 
    46 r_1_1_5      *              0             0             1 
    47 u_1_1_5      *              0             0             1 
    48 r_2_1_5      *              1             0             1 
    49 u_2_1_5      *              0             0             1 
    50 r_1_1_8      *              0             0             1 
    51 u_1_1_8      *              1             0             1 
    52 r_2_1_8      *              1             0             1 
    53 u_2_1_8      *              0             0             1 
    54 r_1_2_3      *              0             0             1 
    55 u_1_2_3      *              0             0             1 
    56 r_2_2_3      *              1             0             1 
    57 u_2_2_3      *              0             0             1 
    58 r_1_2_4      *              0             0             1 
    59 u_1_2_4      *              0             0             1 
    60 r_2_2_4      *              1             0             1 
    61 u_2_2_4      *              0             0             1 
    62 r_1_2_5      *              0             0             1 
    63 u_1_2_5      *              0             0             1 
    64 r_2_2_5      *              1             0             1 
    65 u_2_2_5      *              0             0             1 
    66 r_1_2_7      *              1             0             1 
    67 u_1_2_7      *              0             0             1 
    68 r_2_2_7      *              1             0             1 
    69 u_2_2_7      *              0             0             1 
    70 r_1_3_5      *              0             0             1 
    71 u_1_3_5      *              0             0             1 
    72 r_2_3_5      *              1             0             1 
    73 u_2_3_5      *              0             0             1 
    74 r_1_3_7      *              1             0             1 
    75 u_1_3_7      *              0             0             1 
    76 r_2_3_7      *              1             0             1 
    77 u_2_3_7      *              0             0             1 
    78 r_1_4_5      *              0             0             1 
    79 u_1_4_5      *              0             0             1 
    80 r_2_4_5      *              1             0             1 
    81 u_2_4_5      *              0             0             1 
    82 r_1_4_7      *              1             0             1 
    83 u_1_4_7      *              0             0             1 
    84 r_2_4_7      *              1             0             1 
    85 u_2_4_7      *              0             0             1 
    86 r_1_7_8      *              1             0             1 
    87 u_1_7_8      *              0             0             1 
    88 r_2_7_8      *              1             0             1 
    89 u_2_7_8      *              0             0             1 

Integer feasibility conditions:

KKT.PE: max.abs.err = 0.00e+00 on row 0
        max.rel.err = 0.00e+00 on row 0
        High quality

KKT.PB: max.abs.err = 5.55e-17 on row 187
        max.rel.err = 4.31e-17 on row 187
        High quality

End of output
